
Gurobi 7.0.2 (linux64, Matlab) logging started Sun Sep  2 08:55:01 2018


Gurobi 7.0.2 (linux64) logging started Sun Sep  2 08:55:01 2018

Optimize a model with 1475 rows, 4173 columns and 104236 nonzeros
Coefficient statistics:
  Matrix range     [5e-08, 6e+00]
  Objective range  [1e-06, 6e+00]
  Bounds range     [7e-02, 4e+05]
  RHS range        [5e-02, 6e+01]
Iteration    Objective       Primal Inf.    Dual Inf.      Time
       0    2.7686999e-06   0.000000e+00   0.000000e+00      0s

Solved in 0 iterations and 0.03 seconds
Optimal objective  2.768699922e-06
